c description: Random 3-CNF over 13 variables and 52 clauses
p cnf 13 52
8 10 -11 0
2 -10 13 0
1 -4 9 0
1 11 -12 0
-1 -4 -8 0
1 -8 -12 0
3 -5 7 0
-5 7 -9 0
-4 6 -13 0
8 9 -11 0
-4 5 -9 0
5 8 -11 0
-8 9 -11 0
7 -8 -13 0
-1 9 -11 0
6 -7 10 0
3 4 13 0
-1 -2 3 0
-2 5 -13 0
2 6 -12 0
1 -4 -12 0
4 7 8 0
1 4 12 0
2 6 11 0
6 -8 9 0
1 2 -3 0
5 6 7 0
5 -7 -8 0
4 -8 13 0
5 -8 11 0
-7 8 -9 0
-3 8 -9 0
-4 10 11 0
-7 -12 -13 0
-1 11 13 0
-4 -7 10 0
8 -9 -13 0
2 -5 -13 0
-1 2 9 0
1 4 10 0
-1 11 12 0
2 -9 -10 0
2 8 -12 0
-1 -7 13 0
3 7 13 0
-9 11 13 0
1 6 10 0
4 -8 10 0
-1 6 13 0
3 6 -13 0
1 4 -11 0
5 8 -10 0